param set_len = 30;
param target := 207264;
param values := [1] 12030 [2] 9465 [3] 22247 [4] 364 [5] 22253 [6] 26006 [7] 27519 [8] 8184 [9] 25029 [10] 6410 [11] 15337 [12] 5036 [13] 5318 [14] 7885 [15] 5520 [16] 16521 [17] 7913 [18] 18798 [19] 10196 [20] 9173 [21] 23540 [22] 11365 [23] 24850 [24] 4458 [25] 22899 [26] 30440 [27] 21088 [28] 20484 [29] 15030 [30] 18959 ;
